(declare-const param1@width Int)
(declare-const term_to_project_onto22 Real)
(declare-const term_to_project_onto4 Real)
(declare-const term_to_project_onto11 Real)
(declare-const param2 Int)
(declare-const term_to_project_onto1 Real)
(declare-const term_to_project_onto13 Real)
(declare-const gl_list.4@pos Int)
(declare-const term_to_project_onto10 Real)
(declare-const term_to_project_onto0 Real)
(declare-const term_to_project_onto20 Real)
(declare-const term_to_project_onto25 Real)
(declare-const term_to_project_onto8 Real)
(declare-const term_to_project_onto5 Real)
(declare-const term_to_project_onto18 Real)
(declare-const term_to_project_onto16 Real)
(declare-const term_to_project_onto7 Real)
(declare-const term_to_project_onto15 Real)
(declare-const param1 Int)
(declare-const term_to_project_onto3 Real)
(declare-const term_to_project_onto19 Real)
(declare-const param1@pos Int)
(declare-const gl_list.next@pos Int)
(declare-const gl_list.4@width Int)
(declare-const term_to_project_onto2 Real)
(declare-const term_to_project_onto Real)
(declare-const term_to_project_onto12 Real)
(declare-const gl_list.4 Int)
(declare-const term_to_project_onto27 Real)
(declare-const term_to_project_onto9 Real)
(declare-const term_to_project_onto14 Real)
(declare-const term_to_project_onto23 Real)
(declare-const gl_list.next Int)
(declare-const param2@width Int)
(declare-const term_to_project_onto17 Real)
(declare-const term_to_project_onto6 Real)
(declare-const term_to_project_onto26 Real)
(declare-const param2@pos Int)
(declare-const gl_list.next@width Int)
(declare-const term_to_project_onto21 Real)
(declare-const term_to_project_onto24 Real)
(assert (exists
         ((|any_change'?1| Int) (type_err?2 Int) (type_err?3 Int)
            (store?4 Int) (store?5 Int) (type_err?6 Int) (type_err?7 Int)
            (store?8 Int) (store?9 Int) (tr?10 Int) (havoc?11 Int)
            (store?12 Int) (store?13 Int) (type_err?14 Int) (type_err?15 Int)
            (tr?16 Int) (tr?17 Int) (tr?18 Int) (tr?19 Int) (|pos0'?20| Int)
            (|pos1'?21| Int) (|val0'?22| Int) (|val1'?23| Int)
            (|__cil_tmp9'?24| Int) (|__cil_tmp10'?25| Int) (|return'?26| Int)
            (|param0'?27| Int) (|pos0@pos'?28| Int) (|pos1@pos'?29| Int)
            (|return@pos'?30| Int) (|param0@pos'?31| Int)
            (|pos0@width'?32| Int) (|pos1@width'?33| Int)
            (|return@width'?34| Int) (|param0@width'?35| Int) (K?36 Int)
            (|pos1@width'?37| Int) (|pos0@width'?38| Int)
            (|pos1@pos'?39| Int) (|pos0@pos'?40| Int) (|__cil_tmp10'?41| Int)
            (|__cil_tmp9'?42| Int) (|val1'?43| Int) (|val0'?44| Int)
            (|pos1'?45| Int) (|pos0'?46| Int) (|param2@width'?47| Int)
            (|param1@width'?48| Int) (|param0@width'?49| Int)
            (|return@width'?50| Int) (|gl_list.4@width'?51| Int)
            (|gl_list.next@width'?52| Int) (|param2@pos'?53| Int)
            (|param1@pos'?54| Int) (|param0@pos'?55| Int)
            (|return@pos'?56| Int) (|gl_list.4@pos'?57| Int)
            (|gl_list.next@pos'?58| Int) (|param2'?59| Int)
            (|param1'?60| Int) (|param0'?61| Int) (|return'?62| Int)
            (|gl_list.4'?63| Int) (|gl_list.next'?64| Int)
            (any_change?65 Int) (val1?66 Int) (val0?67 Int)
            (__cil_tmp10?68 Int) (__cil_tmp9?69 Int) (pos1?70 Int)
            (pos1@pos?71 Int) (pos1@width?72 Int) (pos0?73 Int)
            (pos0@pos?74 Int) (pos0@width?75 Int) (return@width?76 Int)
            (return@pos?77 Int) (return?78 Int) (param0@width?79 Int)
            (param0@pos?80 Int) (param0?81 Int))
         (and (<= (- any_change?65) 0)
                (or (and (= K?36 0)
                           (= (+ (- |param0@width'?35|) param0@width?79) 0)
                           (= (+ (- |return@width'?34|) return@width?76) 0)
                           (= (+ (- |pos1@width'?33|) pos1@width?72) 0)
                           (= (+ (- |pos0@width'?32|) pos0@width?75) 0)
                           (= (+ (- |param0@pos'?31|) param0@pos?80) 0)
                           (= (+ (- |return@pos'?30|) return@pos?77) 0)
                           (= (+ (- |pos1@pos'?29|) pos1@pos?71) 0)
                           (= (+ (- |pos0@pos'?28|) pos0@pos?74) 0)
                           (= (+ (- |param0'?27|) param0?81) 0)
                           (= (+ (- |return'?26|) return?78) 0)
                           (= (+ (- |__cil_tmp10'?25|) __cil_tmp10?68) 0)
                           (= (+ (- |__cil_tmp9'?24|) __cil_tmp9?69) 0)
                           (= (+ (- |val1'?23|) val1?66) 0)
                           (= (+ (- |val0'?22|) val0?67) 0)
                           (= (+ (- |pos1'?21|) pos1?70) 0)
                           (= (+ (- |pos0'?20|) pos0?73) 0))
                      (and (<= (+ (- K?36) 1) 0)
                             (= (+ |val1'?23| (- |return'?26|)) 0)
                             (= (+ |__cil_tmp9'?24| (- |param0'?27|)) 0)
                             (= (+ |pos1'?21| (- |param0'?27|)) 0)
                             (= (+ |pos0'?20| (- |param0'?27|)) 0)
                             (= (+ |pos1@pos'?29| (- |param0@pos'?31|)) 0)
                             (= (+ |pos0@pos'?28| (- |param0@pos'?31|)) 0)
                             (= (+ |pos1@width'?33| (- |param0@width'?35|)) 0)
                             (= (+ |pos0@width'?32| (- |param0@width'?35|)) 0)
                             (<= (+ |val0'?22| (- |return'?26|)) 0)))
                (<= (- K?36) 0)
                (or (<= (+ (- tr?18) tr?19 1) 0) (<= (+ tr?18 (- tr?19) 1) 0))
                (<= (+ (- tr?17) tr?16 1) 0)
                (= (+ (- type_err?2) |param2@width'?47|) 0)
                (= (+ (- type_err?14) |param1@width'?48|) 0)
                (= (+ |param0@width'?49| (- |pos0@width'?32|)) 0)
                (= (+ (- type_err?3) |return@width'?50|) 0)
                (= (+ |pos1@width'?37| (- type_err?14)) 0)
                (= (+ |pos0@width'?38| (- |pos0@width'?32|)) 0)
                (= (+ (- store?4) |gl_list.4@width'?51|) 0)
                (= (+ (- store?5) |gl_list.next@width'?52|) 0)
                (= (+ (- type_err?6) |param2@pos'?53|) 0)
                (= (+ (- type_err?15) |param1@pos'?54|) 0)
                (= (+ |param0@pos'?55| (- |pos0@pos'?28|)) 0)
                (= (+ (- type_err?7) |return@pos'?56|) 0)
                (= (+ |pos1@pos'?39| (- type_err?15)) 0)
                (= (+ |pos0@pos'?40| (- |pos0@pos'?28|)) 0)
                (= (+ (- store?8) |gl_list.4@pos'?57|) 0)
                (= (+ (- store?9) |gl_list.next@pos'?58|) 0)
                (= (+ (- tr?10) |param2'?59|) 0)
                (= (+ |param1'?60| (- tr?18)) 0)
                (= (+ |param0'?61| (- |pos0'?20|)) 0)
                (= (+ (- havoc?11) |return'?62|) 0)
                (= (+ |__cil_tmp10'?41| (- tr?19)) 0)
                (= (+ |__cil_tmp9'?42| (- tr?18)) 0)
                (= (+ |val1'?43| (- tr?16)) 0) (= (+ |val0'?44| (- tr?17)) 0)
                (= (+ |pos1'?45| (- tr?18)) 0)
                (= (+ |pos0'?46| (- |pos0'?20|)) 0)
                (= (+ |any_change'?1| -1) 0)
                (= (+ (- store?12) |gl_list.4'?63|) 0)
                (= (+ (- store?13) |gl_list.next'?64|) 0)
                (= term_to_project_onto27 (+ |gl_list.next'?64|
                                               (- gl_list.next)))
                (= term_to_project_onto26 (+ |gl_list.4'?63| (- gl_list.4)))
                (= term_to_project_onto25 (+ |any_change'?1|
                                               (- any_change?65)))
                (= term_to_project_onto24 (+ |pos0'?46| (- pos0?73)))
                (= term_to_project_onto23 (+ |pos1'?45| (- pos1?70)))
                (= term_to_project_onto22 (+ |val0'?44| (- val0?67)))
                (= term_to_project_onto21 (+ |val1'?43| (- val1?66)))
                (= term_to_project_onto20 (+ |__cil_tmp9'?42|
                                               (- __cil_tmp9?69)))
                (= term_to_project_onto19 (+ |__cil_tmp10'?41|
                                               (- __cil_tmp10?68)))
                (= term_to_project_onto18 (+ |return'?62| (- return?78)))
                (= term_to_project_onto17 (+ |param0'?61| (- param0?81)))
                (= term_to_project_onto16 (+ |param1'?60| (- param1)))
                (= term_to_project_onto15 (+ |param2'?59| (- param2)))
                (= term_to_project_onto14 (+ |gl_list.next@pos'?58|
                                               (- gl_list.next@pos)))
                (= term_to_project_onto13 (+ |gl_list.4@pos'?57|
                                               (- gl_list.4@pos)))
                (= term_to_project_onto12 (+ |pos0@pos'?40| (- pos0@pos?74)))
                (= term_to_project_onto11 (+ |pos1@pos'?39| (- pos1@pos?71)))
                (= term_to_project_onto10 (+ |return@pos'?56|
                                               (- return@pos?77)))
                (= term_to_project_onto9 (+ |param0@pos'?55|
                                              (- param0@pos?80)))
                (= term_to_project_onto8 (+ |param1@pos'?54| (- param1@pos)))
                (= term_to_project_onto7 (+ |param2@pos'?53| (- param2@pos)))
                (= term_to_project_onto6 (+ |gl_list.next@width'?52|
                                              (- gl_list.next@width)))
                (= term_to_project_onto5 (+ |gl_list.4@width'?51|
                                              (- gl_list.4@width)))
                (= term_to_project_onto4 (+ |pos0@width'?38|
                                              (- pos0@width?75)))
                (= term_to_project_onto3 (+ |pos1@width'?37|
                                              (- pos1@width?72)))
                (= term_to_project_onto2 (+ |return@width'?50|
                                              (- return@width?76)))
                (= term_to_project_onto1 (+ |param0@width'?49|
                                              (- param0@width?79)))
                (= term_to_project_onto0 (+ |param1@width'?48|
                                              (- param1@width)))
                (= term_to_project_onto (+ |param2@width'?47|
                                             (- param2@width))))))
(check-sat)
